* ENCODING=ISO-8859-1
NAME          IloCplex
ROWS
 N  obj1    
 L  c1      
 E  c2      
 E  c3      
 E  c4      
 E  c5      
 E  c6      
 E  c7      
 E  c8      
 E  c9      
 E  c10     
 E  c11     
 E  c12     
 E  c13     
 E  c14     
 E  c15     
 E  c16     
 E  c17     
 E  c18     
 E  c19     
 E  c20     
 E  c21     
 L  c22     
 L  c23     
 L  c24     
 L  c25     
 L  c26     
 L  c27     
 L  c28     
 L  c29     
 L  c30     
 L  c31     
 L  c32     
 L  c33     
 L  c34     
 L  c35     
 L  c36     
 L  c37     
 L  c38     
 L  c39     
 L  c40     
 L  c41     
 L  c42     
COLUMNS
    y_a_12    c1                              1
    y_a_12    c3                             -1
    y_a_12    c20                             1
    y_a_12    c34                             1
    y_a_13    c1                              1
    y_a_13    c12                            -1
    y_a_13    c20                             1
    y_a_13    c35                             1
    y_a_14    c1                              1
    y_a_14    c14                            -1
    y_a_14    c20                             1
    y_a_14    c36                             1
    y_a_15    c1                              1
    y_a_15    c6                             -1
    y_a_15    c20                             1
    y_a_15    c37                             1
    y_a_0     c2                              1
    y_a_0     c3                             -1
    y_a_0     c22                             1
    y_a_1     c2                              1
    y_a_1     c8                             -1
    y_a_1     c23                             1
    y_a_2     c2                              1
    y_a_2     c9                             -1
    y_a_2     c24                             1
    y_a_3     c2                              1
    y_a_3     c10                            -1
    y_a_3     c25                             1
    y_a_4     c2                              1
    y_a_4     c12                            -1
    y_a_4     c26                             1
    y_a_19    c2                              1
    y_a_19    c21                            -1
    y_a_19    c41                             1
    y_a_5     c3                              1
    y_a_5     c4                             -1
    y_a_5     c27                             1
    y_a_6     c4                              1
    y_a_6     c5                             -1
    y_a_6     c28                             1
    y_a_7     c4                              1
    y_a_7     c11                            -1
    y_a_7     c29                             1
    y_a_8     c5                              1
    y_a_8     c6                             -1
    y_a_8     c30                             1
    y_a_9     c5                              1
    y_a_9     c7                             -1
    y_a_9     c31                             1
    y_a_17    c5                              1
    y_a_17    c21                            -1
    y_a_17    c39                             1
    y_a_10    c6                              1
    y_a_10    c13                            -1
    y_a_10    c32                             1
    y_a_18    c9                              1
    y_a_18    c21                            -1
    y_a_18    c40                             1
    y_a_11    c13                             1
    y_a_11    c14                            -1
    y_a_11    c33                             1
    y_a_16    c18                             1
    y_a_16    c21                            -1
    y_a_16    c38                             1
    y_a_20    c20                            -1
    y_a_20    c21                             1
    y_a_20    c42                             1
    MARK0000  'MARKER'                 'INTORG'
    x_a_0     obj1                            2
    x_a_0     c22                            44
    x_a_1     obj1                            3
    x_a_1     c23                            27
    x_a_2     obj1                            2
    x_a_2     c24                            25
    x_a_3     obj1                            1
    x_a_3     c25                            48
    x_a_4     obj1                            1
    x_a_4     c26                            38
    x_a_5     obj1                            2
    x_a_5     c27                            38
    x_a_6     obj1                            2
    x_a_6     c28                             4
    x_a_7     obj1                            3
    x_a_7     c29                            16
    x_a_8     obj1                            1
    x_a_8     c30                            49
    x_a_9     obj1                            1
    x_a_9     c31                            34
    x_a_10    obj1                            1
    x_a_10    c32                            31
    x_a_11    obj1                            3
    x_a_11    c33                            44
    x_a_12    obj1                   1000000000
    x_a_12    c34                      50000000
    x_a_13    obj1                   1000000000
    x_a_13    c35                      50000000
    x_a_14    obj1                   1000000000
    x_a_14    c36                      50000000
    x_a_15    obj1                   1000000000
    x_a_15    c37                      50000000
    x_a_16    obj1                   1000000000
    x_a_16    c38                      50000000
    x_a_17    obj1                   1000000000
    x_a_17    c39                      50000000
    x_a_18    obj1                   1000000000
    x_a_18    c40                      50000000
    x_a_19    obj1                   1000000000
    x_a_19    c41                      50000000
    x_a_20    obj1                        10000
    x_a_20    c42                         10000
    MARK0001  'MARKER'                 'INTEND'
RHS
    rhs       c1                            3.6
    rhs       c22                            44
    rhs       c23                            27
    rhs       c24                            25
    rhs       c25                            48
    rhs       c26                            38
    rhs       c27                            38
    rhs       c28                             4
    rhs       c29                            16
    rhs       c30                            49
    rhs       c31                            34
    rhs       c32                            31
    rhs       c33                            44
    rhs       c34                      50000000
    rhs       c35                      50000000
    rhs       c36                      50000000
    rhs       c37                      50000000
    rhs       c38                      50000000
    rhs       c39                      50000000
    rhs       c40                      50000000
    rhs       c41                      50000000
    rhs       c42                         10000
BOUNDS
 BV bnd       x_a_0   
 BV bnd       x_a_1   
 BV bnd       x_a_2   
 BV bnd       x_a_3   
 BV bnd       x_a_4   
 BV bnd       x_a_5   
 BV bnd       x_a_6   
 BV bnd       x_a_7   
 BV bnd       x_a_8   
 BV bnd       x_a_9   
 BV bnd       x_a_10  
 BV bnd       x_a_11  
 BV bnd       x_a_12  
 BV bnd       x_a_13  
 BV bnd       x_a_14  
 BV bnd       x_a_15  
 BV bnd       x_a_16  
 BV bnd       x_a_17  
 BV bnd       x_a_18  
 BV bnd       x_a_19  
 BV bnd       x_a_20  
ENDATA
